c turning on binary mode checking
c parsing input formula with 202048 variables and 780980 clauses
c finished parsing, read 19679046 bytes from proof file
c detected empty clause; start verification via backward checking
c 35950 of 780980 clauses in core                            
c 53143 of 495886 lemmas in core using 470712 resolution steps
c 0 RAT lemmas in core; 4496 redundant literals in core lemmas
s VERIFIED
c verification time: 3.411 seconds
